letting n =  10
letting blocks =  [[1, 2], [1, 7], [2, 7], [2, 8], [2, 9], [3, 6], [4, 1], [4, 7], [4, 9], [4, 10], [5, 4], [5, 8], [5, 9], [6, 1], [6, 3], [6, 5], [7, 10], [8, 1], [8, 5], [8, 6], [8, 8], [8, 9], [8, 10], [9, 1], [9, 7], [9, 9], [10, 1], [10, 4], [10, 5], [10, 10]]
